(set-logic QF_LRA)
(declare-fun T1 () Real )
(declare-fun T2 () Real )
(declare-fun T3 () Real )
(declare-fun T4 () Real )
(declare-fun T5 () Real )
(declare-fun T6 () Real )
(declare-fun T7 () Real )
(declare-fun T8 () Real )
(declare-fun Z () Real )
(declare-fun k () Real )
(assert (let
(( $goal (>= Z k) ))
(let
((
$phi ( and 
(or ( <= ( + T1 11 ) T2 ) ( <= ( + T2 46 ) T1 ) )
(or ( <= ( + T1 59 )  ( + T2 46 ) ) ( <= ( + T2 140 )( + T1 11 ) ) )
(or ( <= ( + T1 126 )  ( + T2 140 ) ) ( <= ( + T2 164 )( + T1 59 ) ) )
(or ( <= ( + T1 180 )  ( + T2 164 ) ) ( <= ( + T2 225 )( + T1 126 ) ) )
(or ( <= ( + T1 244 )  ( + T2 225 ) ) ( <= ( + T2 294 )( + T1 180 ) ) )
(or ( <= ( + T1 255 )  ( + T2 294 ) ) ( <= ( + T2 320 )( + T1 244 ) ) )
(or ( <= ( + T1 11 ) T3 ) ( <= ( + T3 11 ) T1 ) )
(or ( <= ( + T1 59 )  ( + T3 11 ) ) ( <= ( + T3 22 )( + T1 11 ) ) )
(or ( <= ( + T1 126 )  ( + T3 22 ) ) ( <= ( + T3 90 )( + T1 59 ) ) )
(or ( <= ( + T1 180 )  ( + T3 90 ) ) ( <= ( + T3 106 )( + T1 126 ) ) )
(or ( <= ( + T1 244 )  ( + T3 106 ) ) ( <= ( + T3 171 )( + T1 180 ) ) )
(or ( <= ( + T1 255 )  ( + T3 171 ) ) ( <= ( + T3 267 )( + T1 244 ) ) )
(or ( <= ( + T1 11 ) T4 ) ( <= ( + T4 13 ) T1 ) )
(or ( <= ( + T1 59 )  ( + T4 13 ) ) ( <= ( + T4 27 )( + T1 11 ) ) )
(or ( <= ( + T1 126 )  ( + T4 27 ) ) ( <= ( + T4 64 )( + T1 59 ) ) )
(or ( <= ( + T1 180 )  ( + T4 64 ) ) ( <= ( + T4 132 )( + T1 126 ) ) )
(or ( <= ( + T1 244 )  ( + T4 132 ) ) ( <= ( + T4 191 )( + T1 180 ) ) )
(or ( <= ( + T1 255 )  ( + T4 191 ) ) ( <= ( + T4 247 )( + T1 244 ) ) )
(or ( <= ( + T1 11 ) T5 ) ( <= ( + T5 76 ) T1 ) )
(or ( <= ( + T1 59 )  ( + T5 76 ) ) ( <= ( + T5 114 )( + T1 11 ) ) )
(or ( <= ( + T1 126 )  ( + T5 114 ) ) ( <= ( + T5 189 )( + T1 59 ) ) )
(or ( <= ( + T1 180 )  ( + T5 189 ) ) ( <= ( + T5 219 )( + T1 126 ) ) )
(or ( <= ( + T1 244 )  ( + T5 219 ) ) ( <= ( + T5 305 )( + T1 180 ) ) )
(or ( <= ( + T1 255 )  ( + T5 305 ) ) ( <= ( + T5 344 )( + T1 244 ) ) )
(or ( <= ( + T1 11 ) T6 ) ( <= ( + T6 16 ) T1 ) )
(or ( <= ( + T1 59 )  ( + T6 16 ) ) ( <= ( + T6 112 )( + T1 11 ) ) )
(or ( <= ( + T1 126 )  ( + T6 112 ) ) ( <= ( + T6 198 )( + T1 59 ) ) )
(or ( <= ( + T1 180 )  ( + T6 198 ) ) ( <= ( + T6 232 )( + T1 126 ) ) )
(or ( <= ( + T1 244 )  ( + T6 232 ) ) ( <= ( + T6 281 )( + T1 180 ) ) )
(or ( <= ( + T1 255 )  ( + T6 281 ) ) ( <= ( + T6 282 )( + T1 244 ) ) )
(or ( <= ( + T1 11 ) T7 ) ( <= ( + T7 44 ) T1 ) )
(or ( <= ( + T1 59 )  ( + T7 44 ) ) ( <= ( + T7 138 )( + T1 11 ) ) )
(or ( <= ( + T1 126 )  ( + T7 138 ) ) ( <= ( + T7 184 )( + T1 59 ) ) )
(or ( <= ( + T1 180 )  ( + T7 184 ) ) ( <= ( + T7 203 )( + T1 126 ) ) )
(or ( <= ( + T1 244 )  ( + T7 203 ) ) ( <= ( + T7 210 )( + T1 180 ) ) )
(or ( <= ( + T1 255 )  ( + T7 210 ) ) ( <= ( + T7 225 )( + T1 244 ) ) )
(or ( <= ( + T1 11 ) T8 ) ( <= ( + T8 44 ) T1 ) )
(or ( <= ( + T1 59 )  ( + T8 44 ) ) ( <= ( + T8 61 )( + T1 11 ) ) )
(or ( <= ( + T1 126 )  ( + T8 61 ) ) ( <= ( + T8 86 )( + T1 59 ) ) )
(or ( <= ( + T1 180 )  ( + T8 86 ) ) ( <= ( + T8 149 )( + T1 126 ) ) )
(or ( <= ( + T1 244 )  ( + T8 149 ) ) ( <= ( + T8 233 )( + T1 180 ) ) )
(or ( <= ( + T1 255 )  ( + T8 233 ) ) ( <= ( + T8 322 )( + T1 244 ) ) )
(or ( <= ( + T2 46 ) T3 ) ( <= ( + T3 11 ) T2 ) )
(or ( <= ( + T2 140 )  ( + T3 11 ) ) ( <= ( + T3 22 )( + T2 46 ) ) )
(or ( <= ( + T2 164 )  ( + T3 22 ) ) ( <= ( + T3 90 )( + T2 140 ) ) )
(or ( <= ( + T2 225 )  ( + T3 90 ) ) ( <= ( + T3 106 )( + T2 164 ) ) )
(or ( <= ( + T2 294 )  ( + T3 106 ) ) ( <= ( + T3 171 )( + T2 225 ) ) )
(or ( <= ( + T2 320 )  ( + T3 171 ) ) ( <= ( + T3 267 )( + T2 294 ) ) )
(or ( <= ( + T2 46 ) T4 ) ( <= ( + T4 13 ) T2 ) )
(or ( <= ( + T2 140 )  ( + T4 13 ) ) ( <= ( + T4 27 )( + T2 46 ) ) )
(or ( <= ( + T2 164 )  ( + T4 27 ) ) ( <= ( + T4 64 )( + T2 140 ) ) )
(or ( <= ( + T2 225 )  ( + T4 64 ) ) ( <= ( + T4 132 )( + T2 164 ) ) )
(or ( <= ( + T2 294 )  ( + T4 132 ) ) ( <= ( + T4 191 )( + T2 225 ) ) )
(or ( <= ( + T2 320 )  ( + T4 191 ) ) ( <= ( + T4 247 )( + T2 294 ) ) )
(or ( <= ( + T2 46 ) T5 ) ( <= ( + T5 76 ) T2 ) )
(or ( <= ( + T2 140 )  ( + T5 76 ) ) ( <= ( + T5 114 )( + T2 46 ) ) )
(or ( <= ( + T2 164 )  ( + T5 114 ) ) ( <= ( + T5 189 )( + T2 140 ) ) )
(or ( <= ( + T2 225 )  ( + T5 189 ) ) ( <= ( + T5 219 )( + T2 164 ) ) )
(or ( <= ( + T2 294 )  ( + T5 219 ) ) ( <= ( + T5 305 )( + T2 225 ) ) )
(or ( <= ( + T2 320 )  ( + T5 305 ) ) ( <= ( + T5 344 )( + T2 294 ) ) )
(or ( <= ( + T2 46 ) T6 ) ( <= ( + T6 16 ) T2 ) )
(or ( <= ( + T2 140 )  ( + T6 16 ) ) ( <= ( + T6 112 )( + T2 46 ) ) )
(or ( <= ( + T2 164 )  ( + T6 112 ) ) ( <= ( + T6 198 )( + T2 140 ) ) )
(or ( <= ( + T2 225 )  ( + T6 198 ) ) ( <= ( + T6 232 )( + T2 164 ) ) )
(or ( <= ( + T2 294 )  ( + T6 232 ) ) ( <= ( + T6 281 )( + T2 225 ) ) )
(or ( <= ( + T2 320 )  ( + T6 281 ) ) ( <= ( + T6 282 )( + T2 294 ) ) )
(or ( <= ( + T2 46 ) T7 ) ( <= ( + T7 44 ) T2 ) )
(or ( <= ( + T2 140 )  ( + T7 44 ) ) ( <= ( + T7 138 )( + T2 46 ) ) )
(or ( <= ( + T2 164 )  ( + T7 138 ) ) ( <= ( + T7 184 )( + T2 140 ) ) )
(or ( <= ( + T2 225 )  ( + T7 184 ) ) ( <= ( + T7 203 )( + T2 164 ) ) )
(or ( <= ( + T2 294 )  ( + T7 203 ) ) ( <= ( + T7 210 )( + T2 225 ) ) )
(or ( <= ( + T2 320 )  ( + T7 210 ) ) ( <= ( + T7 225 )( + T2 294 ) ) )
(or ( <= ( + T2 46 ) T8 ) ( <= ( + T8 44 ) T2 ) )
(or ( <= ( + T2 140 )  ( + T8 44 ) ) ( <= ( + T8 61 )( + T2 46 ) ) )
(or ( <= ( + T2 164 )  ( + T8 61 ) ) ( <= ( + T8 86 )( + T2 140 ) ) )
(or ( <= ( + T2 225 )  ( + T8 86 ) ) ( <= ( + T8 149 )( + T2 164 ) ) )
(or ( <= ( + T2 294 )  ( + T8 149 ) ) ( <= ( + T8 233 )( + T2 225 ) ) )
(or ( <= ( + T2 320 )  ( + T8 233 ) ) ( <= ( + T8 322 )( + T2 294 ) ) )
(or ( <= ( + T3 11 ) T4 ) ( <= ( + T4 13 ) T3 ) )
(or ( <= ( + T3 22 )  ( + T4 13 ) ) ( <= ( + T4 27 )( + T3 11 ) ) )
(or ( <= ( + T3 90 )  ( + T4 27 ) ) ( <= ( + T4 64 )( + T3 22 ) ) )
(or ( <= ( + T3 106 )  ( + T4 64 ) ) ( <= ( + T4 132 )( + T3 90 ) ) )
(or ( <= ( + T3 171 )  ( + T4 132 ) ) ( <= ( + T4 191 )( + T3 106 ) ) )
(or ( <= ( + T3 267 )  ( + T4 191 ) ) ( <= ( + T4 247 )( + T3 171 ) ) )
(or ( <= ( + T3 11 ) T5 ) ( <= ( + T5 76 ) T3 ) )
(or ( <= ( + T3 22 )  ( + T5 76 ) ) ( <= ( + T5 114 )( + T3 11 ) ) )
(or ( <= ( + T3 90 )  ( + T5 114 ) ) ( <= ( + T5 189 )( + T3 22 ) ) )
(or ( <= ( + T3 106 )  ( + T5 189 ) ) ( <= ( + T5 219 )( + T3 90 ) ) )
(or ( <= ( + T3 171 )  ( + T5 219 ) ) ( <= ( + T5 305 )( + T3 106 ) ) )
(or ( <= ( + T3 267 )  ( + T5 305 ) ) ( <= ( + T5 344 )( + T3 171 ) ) )
(or ( <= ( + T3 11 ) T6 ) ( <= ( + T6 16 ) T3 ) )
(or ( <= ( + T3 22 )  ( + T6 16 ) ) ( <= ( + T6 112 )( + T3 11 ) ) )
(or ( <= ( + T3 90 )  ( + T6 112 ) ) ( <= ( + T6 198 )( + T3 22 ) ) )
(or ( <= ( + T3 106 )  ( + T6 198 ) ) ( <= ( + T6 232 )( + T3 90 ) ) )
(or ( <= ( + T3 171 )  ( + T6 232 ) ) ( <= ( + T6 281 )( + T3 106 ) ) )
(or ( <= ( + T3 267 )  ( + T6 281 ) ) ( <= ( + T6 282 )( + T3 171 ) ) )
(or ( <= ( + T3 11 ) T7 ) ( <= ( + T7 44 ) T3 ) )
(or ( <= ( + T3 22 )  ( + T7 44 ) ) ( <= ( + T7 138 )( + T3 11 ) ) )
(or ( <= ( + T3 90 )  ( + T7 138 ) ) ( <= ( + T7 184 )( + T3 22 ) ) )
(or ( <= ( + T3 106 )  ( + T7 184 ) ) ( <= ( + T7 203 )( + T3 90 ) ) )
(or ( <= ( + T3 171 )  ( + T7 203 ) ) ( <= ( + T7 210 )( + T3 106 ) ) )
(or ( <= ( + T3 267 )  ( + T7 210 ) ) ( <= ( + T7 225 )( + T3 171 ) ) )
(or ( <= ( + T3 11 ) T8 ) ( <= ( + T8 44 ) T3 ) )
(or ( <= ( + T3 22 )  ( + T8 44 ) ) ( <= ( + T8 61 )( + T3 11 ) ) )
(or ( <= ( + T3 90 )  ( + T8 61 ) ) ( <= ( + T8 86 )( + T3 22 ) ) )
(or ( <= ( + T3 106 )  ( + T8 86 ) ) ( <= ( + T8 149 )( + T3 90 ) ) )
(or ( <= ( + T3 171 )  ( + T8 149 ) ) ( <= ( + T8 233 )( + T3 106 ) ) )
(or ( <= ( + T3 267 )  ( + T8 233 ) ) ( <= ( + T8 322 )( + T3 171 ) ) )
(or ( <= ( + T4 13 ) T5 ) ( <= ( + T5 76 ) T4 ) )
(or ( <= ( + T4 27 )  ( + T5 76 ) ) ( <= ( + T5 114 )( + T4 13 ) ) )
(or ( <= ( + T4 64 )  ( + T5 114 ) ) ( <= ( + T5 189 )( + T4 27 ) ) )
(or ( <= ( + T4 132 )  ( + T5 189 ) ) ( <= ( + T5 219 )( + T4 64 ) ) )
(or ( <= ( + T4 191 )  ( + T5 219 ) ) ( <= ( + T5 305 )( + T4 132 ) ) )
(or ( <= ( + T4 247 )  ( + T5 305 ) ) ( <= ( + T5 344 )( + T4 191 ) ) )
(or ( <= ( + T4 13 ) T6 ) ( <= ( + T6 16 ) T4 ) )
(or ( <= ( + T4 27 )  ( + T6 16 ) ) ( <= ( + T6 112 )( + T4 13 ) ) )
(or ( <= ( + T4 64 )  ( + T6 112 ) ) ( <= ( + T6 198 )( + T4 27 ) ) )
(or ( <= ( + T4 132 )  ( + T6 198 ) ) ( <= ( + T6 232 )( + T4 64 ) ) )
(or ( <= ( + T4 191 )  ( + T6 232 ) ) ( <= ( + T6 281 )( + T4 132 ) ) )
(or ( <= ( + T4 247 )  ( + T6 281 ) ) ( <= ( + T6 282 )( + T4 191 ) ) )
(or ( <= ( + T4 13 ) T7 ) ( <= ( + T7 44 ) T4 ) )
(or ( <= ( + T4 27 )  ( + T7 44 ) ) ( <= ( + T7 138 )( + T4 13 ) ) )
(or ( <= ( + T4 64 )  ( + T7 138 ) ) ( <= ( + T7 184 )( + T4 27 ) ) )
(or ( <= ( + T4 132 )  ( + T7 184 ) ) ( <= ( + T7 203 )( + T4 64 ) ) )
(or ( <= ( + T4 191 )  ( + T7 203 ) ) ( <= ( + T7 210 )( + T4 132 ) ) )
(or ( <= ( + T4 247 )  ( + T7 210 ) ) ( <= ( + T7 225 )( + T4 191 ) ) )
(or ( <= ( + T4 13 ) T8 ) ( <= ( + T8 44 ) T4 ) )
(or ( <= ( + T4 27 )  ( + T8 44 ) ) ( <= ( + T8 61 )( + T4 13 ) ) )
(or ( <= ( + T4 64 )  ( + T8 61 ) ) ( <= ( + T8 86 )( + T4 27 ) ) )
(or ( <= ( + T4 132 )  ( + T8 86 ) ) ( <= ( + T8 149 )( + T4 64 ) ) )
(or ( <= ( + T4 191 )  ( + T8 149 ) ) ( <= ( + T8 233 )( + T4 132 ) ) )
(or ( <= ( + T4 247 )  ( + T8 233 ) ) ( <= ( + T8 322 )( + T4 191 ) ) )
(or ( <= ( + T5 76 ) T6 ) ( <= ( + T6 16 ) T5 ) )
(or ( <= ( + T5 114 )  ( + T6 16 ) ) ( <= ( + T6 112 )( + T5 76 ) ) )
(or ( <= ( + T5 189 )  ( + T6 112 ) ) ( <= ( + T6 198 )( + T5 114 ) ) )
(or ( <= ( + T5 219 )  ( + T6 198 ) ) ( <= ( + T6 232 )( + T5 189 ) ) )
(or ( <= ( + T5 305 )  ( + T6 232 ) ) ( <= ( + T6 281 )( + T5 219 ) ) )
(or ( <= ( + T5 344 )  ( + T6 281 ) ) ( <= ( + T6 282 )( + T5 305 ) ) )
(or ( <= ( + T5 76 ) T7 ) ( <= ( + T7 44 ) T5 ) )
(or ( <= ( + T5 114 )  ( + T7 44 ) ) ( <= ( + T7 138 )( + T5 76 ) ) )
(or ( <= ( + T5 189 )  ( + T7 138 ) ) ( <= ( + T7 184 )( + T5 114 ) ) )
(or ( <= ( + T5 219 )  ( + T7 184 ) ) ( <= ( + T7 203 )( + T5 189 ) ) )
(or ( <= ( + T5 305 )  ( + T7 203 ) ) ( <= ( + T7 210 )( + T5 219 ) ) )
(or ( <= ( + T5 344 )  ( + T7 210 ) ) ( <= ( + T7 225 )( + T5 305 ) ) )
(or ( <= ( + T5 76 ) T8 ) ( <= ( + T8 44 ) T5 ) )
(or ( <= ( + T5 114 )  ( + T8 44 ) ) ( <= ( + T8 61 )( + T5 76 ) ) )
(or ( <= ( + T5 189 )  ( + T8 61 ) ) ( <= ( + T8 86 )( + T5 114 ) ) )
(or ( <= ( + T5 219 )  ( + T8 86 ) ) ( <= ( + T8 149 )( + T5 189 ) ) )
(or ( <= ( + T5 305 )  ( + T8 149 ) ) ( <= ( + T8 233 )( + T5 219 ) ) )
(or ( <= ( + T5 344 )  ( + T8 233 ) ) ( <= ( + T8 322 )( + T5 305 ) ) )
(or ( <= ( + T6 16 ) T7 ) ( <= ( + T7 44 ) T6 ) )
(or ( <= ( + T6 112 )  ( + T7 44 ) ) ( <= ( + T7 138 )( + T6 16 ) ) )
(or ( <= ( + T6 198 )  ( + T7 138 ) ) ( <= ( + T7 184 )( + T6 112 ) ) )
(or ( <= ( + T6 232 )  ( + T7 184 ) ) ( <= ( + T7 203 )( + T6 198 ) ) )
(or ( <= ( + T6 281 )  ( + T7 203 ) ) ( <= ( + T7 210 )( + T6 232 ) ) )
(or ( <= ( + T6 282 )  ( + T7 210 ) ) ( <= ( + T7 225 )( + T6 281 ) ) )
(or ( <= ( + T6 16 ) T8 ) ( <= ( + T8 44 ) T6 ) )
(or ( <= ( + T6 112 )  ( + T8 44 ) ) ( <= ( + T8 61 )( + T6 16 ) ) )
(or ( <= ( + T6 198 )  ( + T8 61 ) ) ( <= ( + T8 86 )( + T6 112 ) ) )
(or ( <= ( + T6 232 )  ( + T8 86 ) ) ( <= ( + T8 149 )( + T6 198 ) ) )
(or ( <= ( + T6 281 )  ( + T8 149 ) ) ( <= ( + T8 233 )( + T6 232 ) ) )
(or ( <= ( + T6 282 )  ( + T8 233 ) ) ( <= ( + T8 322 )( + T6 281 ) ) )
(or ( <= ( + T7 44 ) T8 ) ( <= ( + T8 44 ) T7 ) )
(or ( <= ( + T7 138 )  ( + T8 44 ) ) ( <= ( + T8 61 )( + T7 44 ) ) )
(or ( <= ( + T7 184 )  ( + T8 61 ) ) ( <= ( + T8 86 )( + T7 138 ) ) )
(or ( <= ( + T7 203 )  ( + T8 86 ) ) ( <= ( + T8 149 )( + T7 184 ) ) )
(or ( <= ( + T7 210 )  ( + T8 149 ) ) ( <= ( + T8 233 )( + T7 203 ) ) )
(or ( <= ( + T7 225 )  ( + T8 233 ) ) ( <= ( + T8 322 )( + T7 210 ) ) )
( <= ( + T1 255 ) Z)
( <= ( + T2 320 ) Z)
( <= ( + T3 267 ) Z)
( <= ( + T4 247 ) Z)
( <= ( + T5 344 ) Z)
( <= ( + T6 282 ) Z)
( <= ( + T7 225 ) Z)
( <= ( + T8 322 ) Z)
( >= T1 0 )
( >= T2 0 )
( >= T3 0 )
( >= T4 0 )
( >= T5 0 )
( >= T6 0 )
( >= T7 0 )
( >= T8 0 )
) )
)(=> $phi $goal))))